c This is a random SAT instance with 10 variables and 20 clauses
p cnf 10 20
10 6 -2 1 -3 -1 7 -4 -9 0
3 9 -2 -5 -4 0
6 -9 9 1 2 0
-9 4 -7 6 -8 2 0
-2 6 -4 -5 -10 -6 3 5 0
-6 10 0
9 5 10 1 -9 -2 -4 -3 0
6 7 -9 -4 8 4 2 0
2 8 -8 4 0
8 -1 0
7 0
10 -10 -3 -1 4 -2 6 3 0
3 7 -6 -7 8 6 -4 -3 10 0
7 -5 9 -9 -7 0
3 9 -1 2 -6 0
-1 2 9 -5 -9 5 6 8 1 0
10 -6 2 -5 0
-7 10 1 -8 9 -3 -10 0
-5 10 -10 0
3 -5 -8 -1 -7 -9 7 1 -6 -3 0